c description: Perfect Matching Principle on 
c generator: CNFgen (0.9.0)
c copyright: (C) 2012-2020 Massimo Lauria <massimo.lauria@uniroma1.it>
c url: https://massimolauria.net/cnfgen
c
p cnf 80 356
0
-1 -2 0
-1 -3 0
-1 -4 0
-1 -5 0
-2 -3 0
-2 -4 0
-2 -5 0
-3 -4 0
-3 -5 0
-4 -5 0
1 2 3 4 5 0
-6 -7 0
-6 -8 0
-6 -9 0
-7 -8 0
-7 -9 0
-8 -9 0
6 7 8 9 0
-10 -11 0
-10 -12 0
-10 -13 0
-10 -14 0
-11 -12 0
-11 -13 0
-11 -14 0
-12 -13 0
-12 -14 0
-13 -14 0
10 11 12 13 14 0
-15 -16 0
15 16 0
-17 -18 0
-17 -19 0
-18 -19 0
17 18 19 0
-17 -20 0
-17 -21 0
-17 -22 0
-20 -21 0
-20 -22 0
-21 -22 0
17 20 21 22 0
0
-10 -23 0
-10 -24 0
-23 -24 0
10 23 24 0
-25 -26 0
25 26 0
-15 -27 0
-15 -28 0
-15 -29 0
-15 -30 0
-15 -31 0
-27 -28 0
-27 -29 0
-27 -30 0
-27 -31 0
-28 -29 0
-28 -30 0
-28 -31 0
-29 -30 0
-29 -31 0
-30 -31 0
15 27 28 29 30 31 0
-32 -33 0
-32 -34 0
-32 -35 0
-32 -36 0
-33 -34 0
-33 -35 0
-33 -36 0
-34 -35 0
-34 -36 0
-35 -36 0
32 33 34 35 36 0
-23 -25 0
-23 -27 0
-23 -37 0
-23 -38 0
-23 -39 0
-23 -40 0
-23 -41 0
-25 -27 0
-25 -37 0
-25 -38 0
-25 -39 0
-25 -40 0
-25 -41 0
-27 -37 0
-27 -38 0
-27 -39 0
-27 -40 0
-27 -41 0
-37 -38 0
-37 -39 0
-37 -40 0
-37 -41 0
-38 -39 0
-38 -40 0
-38 -41 0
-39 -40 0
-39 -41 0
-40 -41 0
23 25 27 37 38 39 40 41 0
-42 -43 0
42 43 0
-18 -44 0
-18 -45 0
-18 -46 0
-18 -47 0
-44 -45 0
-44 -46 0
-44 -47 0
-45 -46 0
-45 -47 0
-46 -47 0
18 44 45 46 47 0
-37 -44 0
-37 -48 0
-37 -49 0
-37 -50 0
-37 -51 0
-44 -48 0
-44 -49 0
-44 -50 0
-44 -51 0
-48 -49 0
-48 -50 0
-48 -51 0
-49 -50 0
-49 -51 0
-50 -51 0
37 44 48 49 50 51 0
-52 -53 0
-52 -54 0
-53 -54 0
52 53 54 0
-32 -55 0
-32 -56 0
-55 -56 0
32 55 56 0
-19 -48 0
-19 -57 0
-19 -58 0
-19 -59 0
-19 -60 0
-48 -57 0
-48 -58 0
-48 -59 0
-48 -60 0
-57 -58 0
-57 -59 0
-57 -60 0
-58 -59 0
-58 -60 0
-59 -60 0
19 48 57 58 59 60 0
-1 -61 0
-1 -62 0
-61 -62 0
1 61 62 0
-11 -33 0
-11 -38 0
-11 -49 0
-11 -63 0
-33 -38 0
-33 -49 0
-33 -63 0
-38 -49 0
-38 -63 0
-49 -63 0
11 33 38 49 63 0
-64 -65 0
-64 -66 0
-64 -67 0
-65 -66 0
-65 -67 0
-66 -67 0
64 65 66 67 0
-16 -64 0
-16 -68 0
-16 -69 0
-64 -68 0
-64 -69 0
-68 -69 0
16 64 68 69 0
-2 -12 0
-2 -34 0
-2 -70 0
-12 -34 0
-12 -70 0
-34 -70 0
2 12 34 70 0
-61 -71 0
-61 -72 0
-71 -72 0
61 71 72 0
-3 -6 0
-3 -24 0
-3 -45 0
-3 -57 0
-6 -24 0
-6 -45 0
-6 -57 0
-24 -45 0
-24 -57 0
-45 -57 0
3 6 24 45 57 0
-46 -55 0
-46 -58 0
-55 -58 0
46 55 58 0
-4 -35 0
-4 -42 0
-4 -50 0
-4 -52 0
-4 -73 0
-4 -74 0
-35 -42 0
-35 -50 0
-35 -52 0
-35 -73 0
-35 -74 0
-42 -50 0
-42 -52 0
-42 -73 0
-42 -74 0
-50 -52 0
-50 -73 0
-50 -74 0
-52 -73 0
-52 -74 0
-73 -74 0
4 35 42 50 52 73 74 0
-7 -39 0
-7 -47 0
-7 -59 0
-7 -65 0
-7 -71 0
-7 -75 0
-7 -76 0
-39 -47 0
-39 -59 0
-39 -65 0
-39 -71 0
-39 -75 0
-39 -76 0
-47 -59 0
-47 -65 0
-47 -71 0
-47 -75 0
-47 -76 0
-59 -65 0
-59 -71 0
-59 -75 0
-59 -76 0
-65 -71 0
-65 -75 0
-65 -76 0
-71 -75 0
-71 -76 0
-75 -76 0
7 39 47 59 65 71 75 76 0
-5 -63 0
-5 -66 0
-63 -66 0
5 63 66 0
-20 -28 0
-20 -40 0
-20 -53 0
-20 -72 0
-20 -77 0
-28 -40 0
-28 -53 0
-28 -72 0
-28 -77 0
-40 -53 0
-40 -72 0
-40 -77 0
-53 -72 0
-53 -77 0
-72 -77 0
20 28 40 53 72 77 0
-68 -73 0
-68 -77 0
-68 -78 0
-73 -77 0
-73 -78 0
-77 -78 0
68 73 77 78 0
-8 -51 0
-8 -70 0
-8 -75 0
-8 -79 0
-51 -70 0
-51 -75 0
-51 -79 0
-70 -75 0
-70 -79 0
-75 -79 0
8 51 70 75 79 0
-13 -29 0
-13 -67 0
-13 -76 0
-29 -67 0
-29 -76 0
-67 -76 0
13 29 67 76 0
-54 -74 0
-54 -79 0
-54 -80 0
-74 -79 0
-74 -80 0
-79 -80 0
54 74 79 80 0
62 0
-14 -21 0
-14 -69 0
-21 -69 0
14 21 69 0
22 0
-9 -26 0
-9 -30 0
-9 -41 0
-9 -43 0
-9 -56 0
-9 -60 0
-9 -78 0
-26 -30 0
-26 -41 0
-26 -43 0
-26 -56 0
-26 -60 0
-26 -78 0
-30 -41 0
-30 -43 0
-30 -56 0
-30 -60 0
-30 -78 0
-41 -43 0
-41 -56 0
-41 -60 0
-41 -78 0
-43 -56 0
-43 -60 0
-43 -78 0
-56 -60 0
-56 -78 0
-60 -78 0
9 26 30 41 43 56 60 78 0
-31 -36 0
-31 -80 0
-36 -80 0
31 36 80 0